NAME: ./prFile/tspFile/tsp_file96.tsp
COMMENT: TSP file generated by Python
TYPE: TSP
DIMENSION: 40
EDGE_WEIGHT_TYPE: EUC_2D
NODE_COORD_SECTION
1 54 34
2 75 17
3 77 61
4 84 52
5 30 30
6 66 14
7 7 32
8 20 23
9 25 59
10 37 73
11 72 42
12 16 10
13 98 42
14 49 73
15 83 27
16 15 68
17 12 65
18 13 37
19 8 28
20 43 88
21 7 81
22 46 29
23 60 89
24 100 58
25 79 33
26 33 44
27 8 54
28 13 1
29 34 79
30 6 57
31 59 82
32 97 57
33 100 95
34 58 53
35 84 28
36 40 36
37 9 49
38 20 76
39 43 54
40 56 7
EOF
